130
85
42
73
66
2
119
49
63
15
60
22
63
7
41
72
70
25
48
28
110
86
78
34
40
90
41
97
61
63
124
70
128
126
42
42
86
24
74
54
68
106
11
34
50
15
11
106
55
41
130
68
59
89
58
29
4
82
1
71
111
98
30
94
50
81
97
104
125
54
42
120
26
108
125
14
10
84
47
74
104
92
16
102
43
19
98
4
64
118
91
30
116
29
75
97
55
4
15
86
